(set-logic HORN)
(declare-fun state (Bool Bool Bool (Array Int Int) (Array Int Int) (Array Int Int) Int Int Int Int Int) Bool)
(assert (forall ((|!pc[2]| Bool) (|!pc[1]| Bool) (|!pc[0]| Bool) (|!{a2.2}| (Array Int Int)) (|!{a1.1}| (Array Int Int)) (|!{a3.3}| (Array Int Int)) (|!{N}| Int) (|!{x}| Int) (|!{i}| Int) (|arrlambda_0| Int) (|proph0| Int) (|!{a3.3}.next| (Array Int Int)) (|!{a2.2}.next| (Array Int Int)) (|!{i}.next| Int) (|nd_char<0>| Int) (|!{a1.1}.next| (Array Int Int)) (|!{x}.next| Int) (|arrlambda_0.next| Int) (|nd<0>| Int) (|%{a1.1}#1| (Array Int Int)) (|%{a2.2}#1| (Array Int Int)) (|%{a3.3}#1| (Array Int Int)) (|!{N}.next| Int) (|%{x}#1| Int) (|!pc[2].next| Bool) (|!pc[1].next| Bool) (|!pc[0].next| Bool) (|proph0.next| Int)) (=> (and (and (not |!pc[0]|) (not |!pc[1]|)) (not |!pc[2]|)) (state |!pc[2]| |!pc[1]| |!pc[0]| |!{a2.2}| |!{a1.1}| |!{a3.3}| |!{N}| |!{x}| |!{i}| |arrlambda_0| |proph0|))))
(assert (forall ((|!pc[2]| Bool) (|!pc[1]| Bool) (|!pc[0]| Bool) (|!{a2.2}| (Array Int Int)) (|!{a1.1}| (Array Int Int)) (|!{a3.3}| (Array Int Int)) (|!{N}| Int) (|!{x}| Int) (|!{i}| Int) (|arrlambda_0| Int) (|proph0| Int) (|!{a3.3}.next| (Array Int Int)) (|!{a2.2}.next| (Array Int Int)) (|!{i}.next| Int) (|nd_char<0>| Int) (|!{a1.1}.next| (Array Int Int)) (|!{x}.next| Int) (|arrlambda_0.next| Int) (|nd<0>| Int) (|%{a1.1}#1| (Array Int Int)) (|%{a2.2}#1| (Array Int Int)) (|%{a3.3}#1| (Array Int Int)) (|!{N}.next| Int) (|%{x}#1| Int) (|!pc[2].next| Bool) (|!pc[1].next| Bool) (|!pc[0].next| Bool) (|proph0.next| Int)) (=> (and (state |!pc[2]| |!pc[1]| |!pc[0]| |!{a2.2}| |!{a1.1}| |!{a3.3}| |!{N}| |!{x}| |!{i}| |arrlambda_0| |proph0|) (let ((.def_21 (not |!pc[0]|))) (let ((.def_22 (not |!pc[1]|))) (let ((.def_24 (not |!pc[2]|))) (let ((.def_26 (select |!{a3.3}| proph0))) (let ((.def_28 (select |!{a3.3}.next| proph0))) (let ((.def_30 (= |!{a3.3}| |!{a3.3}.next|))) (let ((.def_31 (not .def_30))) (let ((.def_33 (select |!{a2.2}| proph0))) (let ((.def_35 (select |!{a2.2}.next| proph0))) (let ((.def_37 (= |!{a2.2}| |!{a2.2}.next|))) (let ((.def_38 (not .def_37))) (let ((.def_45 (select |!{a2.2}.next| |!{i}|))) (let ((.def_46 (select |!{a2.2}| |!{i}|))) (let ((.def_50 (store |!{a2.2}| |!{i}| nd_char<0>))) (let ((.def_51 (select .def_50 proph0))) (let ((.def_53 (= |!{i}| proph0))) (let ((.def_55 (store |!{a1.1}| |!{i}| nd_char<0>))) (let ((.def_56 (select .def_55 proph0))) (let ((.def_57 (select |!{a1.1}| proph0))) (let ((.def_60 (store |!{a3.3}| |!{i}| .def_46))) (let ((.def_61 (select .def_60 proph0))) (let ((.def_65 (= |!{a2.2}.next| .def_50))) (let ((.def_66 (not .def_65))) (let ((.def_69 (select |!{a1.1}.next| proph0))) (let ((.def_71 (= .def_55 |!{a1.1}.next|))) (let ((.def_72 (not .def_71))) (let ((.def_75 (= |!{a3.3}.next| .def_60))) (let ((.def_76 (not .def_75))) (let ((.def_78 (select .def_50 |!{i}|))) (let ((.def_81 (select |!{a1.1}.next| |!{i}|))) (let ((.def_82 (select .def_55 |!{i}|))) (let ((.def_86 (select .def_60 |!{i}|))) (let ((.def_95 (select |!{a2.2}.next| |!{i}.next|))) (let ((.def_100 (= |!{a1.1}| |!{a1.1}.next|))) (let ((.def_101 (not .def_100))) (let ((.def_131 (= |!{i}.next| 0))) (let ((.def_138 (not |!pc[2].next|))) (let ((.def_140 (not |!pc[1].next|))) (let ((.def_142 (and .def_140 |!pc[0].next|))) (let ((.def_143 (and .def_138 .def_142))) (let ((.def_148 (= (select |!{a1.1}| |!{x}|) (select |!{a3.3}| |!{x}|)))) (let ((.def_153 (= |!{N}| |!{N}.next|))) (let ((.def_155 (= |!{i}| |!{i}.next|))) (let ((.def_157 (= |!{x}| |!{x}.next|))) (let ((.def_159 (<= |!{N}| |!{x}|))) (let ((.def_160 (not .def_159))) (let ((.def_165 (and .def_24 (and |!pc[1]| .def_21)))) (let ((.def_173 (and .def_37 .def_100))) (let ((.def_175 (and .def_153 (and .def_30 .def_173)))) (let ((.def_176 (and .def_155 .def_175))) (let ((.def_177 (and (= (+ |!{x}| (* (- 1) |!{x}.next|)) (- 1)) .def_176))) (let ((.def_180 (not |!pc[0].next|))) (let ((.def_182 (and .def_138 (and |!pc[1].next| .def_180)))) (let ((.def_199 (and .def_24 (and |!pc[1]| |!pc[0]|)))) (let ((.def_209 (= (+ |!{i}| (* (- 1) |!{i}.next|)) (- 1)))) (let ((.def_212 (<= |!{N}| |!{i}|))) (let ((.def_213 (not .def_212))) (let ((.def_215 (and |!pc[0]| .def_22))) (let ((.def_216 (and |!pc[2]| .def_215))) (let ((.def_217 (and |!pc[2].next| .def_142))) (let ((.def_233 (and .def_24 .def_215))) (let ((.def_247 (store |!{a3.3}.next| |!{i}.next| .def_95))) (let ((.def_252 (store |!{a1.1}.next| |!{i}.next| nd_char<0>))) (let ((.def_257 (store |!{a2.2}.next| |!{i}.next| nd_char<0>))) (let ((.def_282 (= |!{i}.next| proph0.next))) (and (or (= .def_26 .def_28) .def_31) (and (or (= .def_33 .def_35) .def_38) (and (or .def_31 (= (select |!{a3.3}| |!{i}.next|) (select |!{a3.3}.next| |!{i}.next|))) (and (or .def_38 (= .def_45 .def_46)) (and (and (or (= .def_33 .def_51) .def_53) (and (and (or .def_53 (= .def_56 .def_57)) (and (and (or .def_53 (= .def_26 .def_61)) (and (or (= .def_35 .def_51) .def_66) (and (or (= .def_56 .def_69) .def_72) (and (or (= .def_28 .def_61) .def_76) (and (and (and (or .def_66 (= .def_45 .def_78)) (and (or .def_72 (= .def_81 .def_82)) (and (or .def_76 (= (select |!{a3.3}.next| |!{i}|) .def_86)) (and (or .def_31 (= (select |!{a3.3}| |!{x}.next|) (select |!{a3.3}.next| |!{x}.next|))) (and (or .def_38 (= (select |!{a2.2}| |!{i}.next|) .def_95)) (and (or (= .def_81 (select |!{a1.1}| |!{i}|)) .def_101) (and (or .def_101 (= (select |!{a1.1}| |!{x}.next|) (select |!{a1.1}.next| |!{x}.next|))) (and (or .def_101 (= (select |!{a1.1}| |!{i}.next|) (select |!{a1.1}.next| |!{i}.next|))) (and (and (= nd_char<0> .def_78) (and (and (= nd_char<0> .def_82) (and (and (= .def_46 .def_86) (and (and (= arrlambda_0 arrlambda_0.next) (or (or (or (or (and (and (not (<= nd<0> 0)) (and (and (and (and (and (= |!{a1.1}.next| |%{a1.1}#1|) (= |!{a2.2}.next| |%{a2.2}#1|)) (= |!{a3.3}.next| |%{a3.3}#1|)) (= nd<0> |!{N}.next|)) .def_131) (= |!{x}.next| |%{x}#1|))) (and (and (and .def_21 .def_22) .def_24) .def_143)) (or (or (and (and (and (and (and (and .def_30 (and .def_37 (and .def_100 (not .def_148)))) .def_153) .def_155) .def_157) .def_160) (and (and .def_138 (and |!pc[1].next| |!pc[0].next|)) .def_165)) (and (and .def_160 (and .def_148 .def_177)) (and .def_165 .def_182))) (and (and .def_157 (and .def_155 (and .def_153 (and .def_30 (and .def_37 (and .def_100 .def_159)))))) (and .def_165 (and |!pc[2].next| (and .def_140 .def_180)))))) (and .def_177 (and .def_182 .def_199))) (or (and (and (and .def_157 (and (and .def_153 (and .def_75 .def_173)) .def_209)) .def_213) (and .def_216 .def_217)) (and (and .def_212 (and .def_176 (= |!{x}.next| 0))) (and .def_182 .def_216)))) (or (and (and .def_213 (and .def_157 (and .def_209 (and .def_153 (and .def_30 (and .def_65 .def_71)))))) (and .def_143 .def_233)) (and (and .def_212 (and .def_157 (and .def_131 .def_175))) (and .def_217 .def_233))))) (not .def_199))) (= .def_95 (select .def_247 |!{i}.next|)))) (= nd_char<0> (select .def_252 |!{i}.next|)))) (= nd_char<0> (select .def_257 |!{i}.next|))))))))))) (= proph0 proph0.next)) (or .def_101 (= .def_57 .def_69))))))) (or (= (select |!{a3.3}.next| proph0.next) (select .def_247 proph0.next)) .def_282))) (or .def_282 (= (select |!{a1.1}.next| proph0.next) (select .def_252 proph0.next))))) (or .def_282 (= (select |!{a2.2}.next| proph0.next) (select .def_257 proph0.next)))))))))))))))))))))))))))))))))))))))))))))))))))))))))))))))))))))))))) (state |!pc[2].next| |!pc[1].next| |!pc[0].next| |!{a2.2}.next| |!{a1.1}.next| |!{a3.3}.next| |!{N}.next| |!{x}.next| |!{i}.next| |arrlambda_0.next| |proph0.next|))))
(assert (forall ((|!pc[2]| Bool) (|!pc[1]| Bool) (|!pc[0]| Bool) (|!{a2.2}| (Array Int Int)) (|!{a1.1}| (Array Int Int)) (|!{a3.3}| (Array Int Int)) (|!{N}| Int) (|!{x}| Int) (|!{i}| Int) (|arrlambda_0| Int) (|proph0| Int) (|!{a3.3}.next| (Array Int Int)) (|!{a2.2}.next| (Array Int Int)) (|!{i}.next| Int) (|nd_char<0>| Int) (|!{a1.1}.next| (Array Int Int)) (|!{x}.next| Int) (|arrlambda_0.next| Int) (|nd<0>| Int) (|%{a1.1}#1| (Array Int Int)) (|%{a2.2}#1| (Array Int Int)) (|%{a3.3}#1| (Array Int Int)) (|!{N}.next| Int) (|%{x}#1| Int) (|!pc[2].next| Bool) (|!pc[1].next| Bool) (|!pc[0].next| Bool) (|proph0.next| Int)) (=> (state |!pc[2]| |!pc[1]| |!pc[0]| |!{a2.2}| |!{a1.1}| |!{a3.3}| |!{N}| |!{x}| |!{i}| |arrlambda_0| |proph0|) (or (not (and (not |!pc[2]|) (and |!pc[1]| |!pc[0]|))) (not (= |!{x}| proph0))))))
(check-sat)
